DATASET = "thpack3";
INSTANCE = "036";

WIDTH = 233;
HEIGHT = 220;
LENGTH = 587;

NO_OF_SHAPES = 8;
size = [|
  41,39,26 |
  110,40,34 |
  94,77,52 |
  119,96,71 |
  67,63,47 |
  61,43,31 |
  72,53,35 |
  64,38,38 |
|];

verticality = [|
  1,1,1 |
  0,1,1 |
  1,1,1 |
  1,1,1 |
  1,1,1 |
  1,1,1 |
  0,1,1 |
  1,1,1 |
|];

box_count = [
  17,
  11,
  10,
  21,
  16,
  11,
  10,
  15,
];
